 Code   533
 Dimension, Fixed Cost
   100        3000
 Facility, Client, Transportation Cost
     1        3           2
     1       16           4
     1       20           4
     1       26           4
     1       38           4
     1       42           0
     1       46           0
     1       50           2
     1       52           0
     1       72           3
     2       31           4
     2       64           1
     2       68           3
     2       73           0
     2       76           1
     2       85           1
     2       92           4
     2       98           2
     2       99           0
     2      100           0
     3        2           2
     3       10           4
     3       20           0
     3       37           0
     3       55           3
     3       56           2
     3       66           2
     3       67           4
     3       68           3
     3       71           0
     4        3           3
     4        5           3
     4        6           4
     4       18           1
     4       23           0
     4       29           2
     4       30           4
     4       31           0
     4       35           1
     4       37           1
     5        6           1
     5       10           0
     5       19           3
     5       28           1
     5       48           0
     5       50           0
     5       57           4
     5       69           0
     5       77           1
     5       80           3
     6       13           3
     6       17           1
     6       28           3
     6       51           4
     6       64           4
     6       70           2
     6       87           1
     6       95           3
     6       96           3
     6       98           1
     7        1           2
     7        3           3
     7       15           2
     7       39           0
     7       40           2
     7       43           0
     7       45           1
     7       61           2
     7       68           1
     7       78           0
     8        6           3
     8       37           4
     8       46           4
     8       47           2
     8       63           1
     8       72           3
     8       73           4
     8       74           1
     8       79           1
     8       91           3
     9       16           4
     9       17           2
     9       21           0
     9       24           4
     9       30           1
     9       33           4
     9       40           2
     9       44           1
     9       66           1
     9       78           3
    10       34           1
    10       42           3
    10       43           4
    10       55           3
    10       58           4
    10       68           0
    10       78           0
    10       86           0
    10       87           1
    10       88           0
    11        7           4
    11       23           1
    11       24           1
    11       31           4
    11       37           1
    11       38           2
    11       42           4
    11       51           4
    11       61           1
    11       72           4
    12        6           0
    12       22           2
    12       29           1
    12       32           1
    12       39           4
    12       87           2
    12       89           4
    12       95           4
    12       97           3
    12      100           2
    13        3           4
    13        9           0
    13       27           4
    13       32           3
    13       42           1
    13       49           4
    13       53           2
    13       56           1
    13       57           0
    13       59           4
    14       20           3
    14       31           1
    14       44           3
    14       45           2
    14       62           0
    14       67           4
    14       73           4
    14       85           4
    14       87           1
    14       89           1
    15        1           0
    15        9           4
    15       15           3
    15       19           3
    15       32           0
    15       36           1
    15       38           0
    15       75           4
    15       83           2
    15       88           4
    16        4           0
    16       18           1
    16       45           2
    16       51           0
    16       55           1
    16       69           2
    16       75           3
    16       77           1
    16       89           0
    16       97           2
    17       16           3
    17       23           1
    17       31           3
    17       51           4
    17       57           3
    17       72           2
    17       75           1
    17       81           4
    17       84           1
    17       85           1
    18       36           1
    18       43           2
    18       61           2
    18       62           1
    18       66           3
    18       67           1
    18       78           3
    18       84           2
    18       86           3
    18       90           2
    19        3           2
    19        5           0
    19       11           4
    19       24           4
    19       26           0
    19       27           0
    19       30           0
    19       35           2
    19       42           1
    19       51           1
    20        4           0
    20        7           2
    20       12           3
    20       19           3
    20       25           2
    20       29           0
    20       33           0
    20       43           0
    20       49           3
    20       56           4
    21        3           2
    21        9           2
    21       44           3
    21       76           0
    21       81           0
    21       83           4
    21       88           0
    21       93           3
    21       94           1
    21       95           1
    22        2           3
    22        8           3
    22       33           1
    22       46           3
    22       48           1
    22       53           2
    22       58           3
    22       65           4
    22       71           4
    22       76           2
    23       12           3
    23       35           2
    23       52           4
    23       60           2
    23       61           1
    23       75           4
    23       87           4
    23       94           0
    23       96           3
    23       98           2
    24        1           2
    24        2           4
    24        9           1
    24       17           1
    24       38           1
    24       50           3
    24       56           3
    24       58           0
    24       66           4
    24       71           1
    25        5           2
    25        9           4
    25       15           1
    25       38           3
    25       40           0
    25       59           3
    25       63           1
    25       70           0
    25       83           3
    25       90           3
    26        1           4
    26       25           3
    26       31           4
    26       39           0
    26       47           1
    26       51           3
    26       59           4
    26       73           4
    26       79           4
    26       90           2
    27        6           0
    27        8           0
    27        9           2
    27       11           4
    27       15           0
    27       16           0
    27       18           4
    27       44           3
    27       50           0
    27       69           2
    28       21           1
    28       25           2
    28       48           0
    28       72           2
    28       78           1
    28       82           4
    28       89           0
    28       93           2
    28       99           0
    28      100           4
    29        1           2
    29       19           3
    29       23           3
    29       41           0
    29       52           0
    29       54           2
    29       63           0
    29       64           4
    29       70           4
    29       81           4
    30       11           2
    30       22           0
    30       47           1
    30       61           0
    30       74           4
    30       77           3
    30       79           3
    30       90           0
    30       91           3
    30       93           0
    31        7           0
    31        8           3
    31       10           2
    31       18           3
    31       19           4
    31       22           4
    31       40           1
    31       47           2
    31       61           0
    31       83           1
    32       17           0
    32       26           3
    32       28           4
    32       31           0
    32       34           0
    32       37           4
    32       41           4
    32       70           1
    32       91           2
    32       92           1
    33       17           2
    33       24           1
    33       25           2
    33       29           0
    33       30           1
    33       49           0
    33       52           2
    33       66           0
    33       80           4
    33       85           2
    34        1           1
    34       10           0
    34       14           2
    34       53           0
    34       79           3
    34       86           2
    34       88           0
    34       89           0
    34       97           3
    34       99           2
    35        3           0
    35       46           0
    35       57           2
    35       60           0
    35       68           2
    35       76           2
    35       86           2
    35       88           2
    35       94           2
    35       95           3
    36        4           3
    36       15           3
    36       17           3
    36       27           1
    36       28           1
    36       40           0
    36       43           1
    36       52           1
    36       57           2
    36       62           3
    37        2           4
    37       10           2
    37       23           0
    37       26           4
    37       29           4
    37       32           0
    37       36           2
    37       40           0
    37       50           2
    37       54           2
    38        5           3
    38       15           0
    38       30           3
    38       34           3
    38       54           2
    38       56           4
    38       64           4
    38       70           0
    38       72           3
    38       85           3
    39       47           4
    39       52           0
    39       58           3
    39       75           3
    39       80           0
    39       85           3
    39       97           1
    39       98           0
    39       99           2
    39      100           1
    40        4           3
    40       14           2
    40       18           1
    40       27           2
    40       28           2
    40       30           4
    40       36           3
    40       50           1
    40       57           3
    40       63           2
    41       12           3
    41       28           3
    41       34           4
    41       35           3
    41       64           0
    41       71           4
    41       74           1
    41       84           1
    41       90           0
    41       92           1
    42       13           0
    42       60           0
    42       66           4
    42       69           0
    42       90           1
    42       92           1
    42       94           3
    42       96           2
    42       98           0
    42       99           3
    43        5           3
    43        8           3
    43       11           4
    43       13           4
    43       32           3
    43       48           3
    43       64           0
    43       81           2
    43       91           1
    43       92           4
    44        4           3
    44       13           2
    44       15           0
    44       21           0
    44       31           1
    44       33           1
    44       48           0
    44       49           4
    44       84           1
    44       86           3
    45        2           3
    45       16           2
    45       18           4
    45       45           4
    45       62           2
    45       63           0
    45       82           4
    45       83           1
    45       84           4
    45       86           0
    46       10           2
    46       16           3
    46       24           2
    46       30           2
    46       36           3
    46       38           1
    46       58           3
    46       62           4
    46       63           4
    46       76           1
    47       24           0
    47       35           0
    47       40           0
    47       48           2
    47       75           0
    47       78           4
    47       80           0
    47       93           0
    47       95           3
    47       96           4
    48        2           1
    48       22           0
    48       25           3
    48       26           1
    48       41           4
    48       56           3
    48       70           0
    48       77           0
    48       80           3
    48       90           2
    49        7           3
    49       11           2
    49       13           0
    49       17           0
    49       19           2
    49       28           1
    49       31           3
    49       37           4
    49       43           4
    49       51           1
    50       20           0
    50       24           4
    50       27           0
    50       29           3
    50       35           2
    50       38           1
    50       44           3
    50       52           0
    50       76           0
    50       77           4
    51        2           1
    51       27           4
    51       34           4
    51       43           3
    51       61           3
    51       73           4
    51       77           2
    51       81           3
    51       83           2
    51       95           3
    52       20           0
    52       40           3
    52       55           2
    52       58           0
    52       59           1
    52       64           0
    52       82           1
    52       87           3
    52       89           0
    52       90           2
    53       21           3
    53       44           0
    53       63           2
    53       88           3
    53       89           0
    53       91           4
    53       94           3
    53       96           1
    53       97           0
    53       98           4
    54        6           3
    54       20           0
    54       33           4
    54       41           1
    54       51           4
    54       59           0
    54       64           2
    54       88           0
    54       89           0
    54       93           0
    55       12           1
    55       27           1
    55       38           1
    55       42           1
    55       55           2
    55       60           0
    55       90           4
    55       94           4
    55       96           3
    55       97           3
    56       18           4
    56       19           4
    56       32           2
    56       55           4
    56       59           0
    56       62           0
    56       66           0
    56       76           0
    56       82           2
    56       85           2
    57        7           4
    57       10           3
    57       24           4
    57       33           0
    57       64           1
    57       66           4
    57       73           4
    57       80           0
    57       83           0
    57       91           0
    58        4           4
    58        9           3
    58       20           1
    58       41           0
    58       47           2
    58       60           4
    58       71           2
    58       84           2
    58       92           2
    58       93           3
    59       12           1
    59       20           3
    59       24           1
    59       28           1
    59       49           1
    59       89           0
    59       91           3
    59       94           3
    59       96           1
    59       97           1
    60       13           2
    60       14           4
    60       15           0
    60       32           3
    60       35           3
    60       37           2
    60       39           2
    60       53           0
    60       65           3
    60       67           3
    61        7           3
    61        8           0
    61       19           1
    61       29           3
    61       35           0
    61       77           0
    61       84           3
    61       96           4
    61       97           2
    61      100           2
    62        3           0
    62        5           3
    62        8           1
    62       12           0
    62       16           3
    62       28           4
    62       34           1
    62       39           3
    62       57           1
    62       62           2
    63       14           3
    63       53           1
    63       67           0
    63       71           1
    63       73           0
    63       74           4
    63       77           2
    63       79           4
    63       91           3
    63       93           4
    64        5           2
    64       35           2
    64       42           2
    64       45           1
    64       47           2
    64       51           2
    64       69           3
    64       74           0
    64       83           4
    64       84           1
    65       25           1
    65       36           3
    65       37           3
    65       42           3
    65       49           3
    65       57           4
    65       62           2
    65       78           3
    65       88           4
    65       92           1
    66       14           2
    66       18           3
    66       26           1
    66       37           3
    66       41           3
    66       47           4
    66       64           0
    66       67           0
    66       68           0
    66       69           1
    67        1           0
    67        3           3
    67        4           4
    67       11           4
    67       42           0
    67       48           4
    67       63           0
    67       65           1
    67       76           0
    67       79           3
    68        7           2
    68       10           4
    68       11           1
    68       25           0
    68       38           3
    68       42           2
    68       49           4
    68       74           3
    68       75           0
    68       81           4
    69        9           3
    69       21           1
    69       33           1
    69       44           4
    69       52           3
    69       65           4
    69       78           3
    69       81           4
    69       85           1
    69       93           2
    70       14           3
    70       21           0
    70       50           4
    70       58           4
    70       65           4
    70       74           0
    70       81           3
    70       85           2
    70       86           0
    70       88           1
    71        1           3
    71       54           3
    71       71           0
    71       76           0
    71       87           2
    71       96           3
    71       97           1
    71       98           4
    71       99           4
    71      100           1
    72       11           3
    72       12           4
    72       15           4
    72       26           2
    72       29           4
    72       43           0
    72       65           4
    72       70           0
    72       71           2
    72       74           0
    73        9           2
    73       13           1
    73       24           0
    73       35           4
    73       36           2
    73       66           4
    73       70           1
    73       72           0
    73       73           2
    73       80           2
    74        1           4
    74       14           2
    74       25           1
    74       45           4
    74       49           3
    74       58           3
    74       78           3
    74       79           2
    74       80           0
    74       89           0
    75        7           0
    75       10           2
    75       12           4
    75       43           1
    75       56           3
    75       60           2
    75       67           4
    75       69           3
    75       70           3
    75       75           2
    76        2           0
    76        3           3
    76        6           3
    76       12           0
    76       20           2
    76       22           3
    76       23           4
    76       36           1
    76       39           0
    76       41           2
    77       11           1
    77       17           0
    77       40           1
    77       47           0
    77       49           2
    77       53           2
    77       72           2
    77       73           4
    77       79           3
    77       82           2
    78        4           4
    78        6           2
    78       12           4
    78       16           3
    78       21           2
    78       33           3
    78       46           2
    78       77           1
    78       81           3
    78       82           2
    79        5           3
    79        8           3
    79       17           1
    79       25           4
    79       39           1
    79       44           0
    79       45           0
    79       46           0
    79       54           1
    79       67           1
    80        2           1
    80       39           4
    80       52           3
    80       60           4
    80       80           2
    80       91           0
    80       94           4
    80       95           3
    80       99           2
    80      100           4
    81       23           2
    81       32           4
    81       34           0
    81       43           2
    81       45           1
    81       46           0
    81       61           2
    81       85           3
    81       87           4
    81       93           3
    82        6           1
    82       17           2
    82       18           4
    82       22           3
    82       29           2
    82       54           4
    82       55           3
    82       56           4
    82       63           0
    82       76           0
    83       16           3
    83       21           4
    83       26           4
    83       53           4
    83       69           2
    83       80           0
    83       97           4
    83       98           1
    83       99           2
    83      100           3
    84        9           0
    84       34           2
    84       46           0
    84       48           4
    84       55           4
    84       62           2
    84       65           1
    84       81           4
    84       92           4
    84       95           3
    85       50           2
    85       55           4
    85       59           0
    85       91           1
    85       92           4
    85       93           4
    85       94           2
    85       98           2
    85       99           3
    85      100           2
    86       14           3
    86       21           4
    86       30           1
    86       34           0
    86       50           4
    86       59           2
    86       65           3
    86       94           3
    86       95           3
    86       96           0
    87        4           3
    87       22           0
    87       33           3
    87       39           2
    87       45           1
    87       54           0
    87       57           0
    87       62           0
    87       74           3
    87       86           2
    88        7           4
    88       10           2
    88       22           4
    88       23           3
    88       27           1
    88       30           2
    88       34           3
    88       41           3
    88       57           0
    88       60           4
    89        8           2
    89       13           4
    89       14           0
    89       16           4
    89       27           2
    89       40           2
    89       41           3
    89       44           0
    89       58           0
    89       67           4
    90        1           4
    90        5           3
    90       11           1
    90       18           0
    90       21           4
    90       28           1
    90       46           0
    90       48           0
    90       53           0
    90       68           0
    91        8           3
    91       31           4
    91       36           2
    91       37           3
    91       45           3
    91       58           0
    91       72           1
    91       83           1
    91       84           3
    91       87           0
    92        2           0
    92        5           0
    92       19           3
    92       23           2
    92       41           4
    92       56           4
    92       65           1
    92       69           1
    92       73           3
    92       82           4
    93       14           4
    93       25           0
    93       48           3
    93       53           4
    93       54           3
    93       67           0
    93       69           4
    93       75           0
    93       79           3
    93       82           1
    94       19           4
    94       44           4
    94       46           0
    94       50           4
    94       52           0
    94       55           2
    94       61           4
    94       68           4
    94       75           4
    94       77           1
    95       13           4
    95       20           0
    95       49           0
    95       59           0
    95       65           4
    95       70           0
    95       71           3
    95       83           2
    95       86           1
    95       87           2
    96        6           4
    96       29           2
    96       32           3
    96       39           3
    96       54           4
    96       60           1
    96       61           3
    96       68           1
    96       74           4
    96       90           4
    97       22           3
    97       63           3
    97       66           0
    97       78           2
    97       82           3
    97       92           0
    97       95           0
    97       98           2
    97       99           0
    97      100           3
    98       13           0
    98       23           4
    98       26           3
    98       27           1
    98       56           4
    98       60           0
    98       68           1
    98       72           1
    98       79           3
    98       82           2
    99        4           1
    99        7           2
    99        8           0
    99       15           0
    99       30           0
    99       32           1
    99       33           2
    99       36           2
    99       47           4
    99       54           1
   100       22           1
   100       26           4
   100       38           0
   100       51           1
   100       53           0
   100       59           1
   100       71           0
   100       84           3
   100       86           0
   100       88           1
